INPUT_PARAMETERS

pseudo_dir            PP_ORB # 所有赝势轨道位置
orbital_dir             PP_ORB
ecutwfc                 100 # 标准基组文件统一为 100 （文件名显示的）
scf_thr                 1e-7 
scf_nmax                100 
symmetry                0
kspacing                0.08
basis_type              lcao
dft_functional          pbe 
calculation             scf 
ks_solver               genelpa
smearing_method         gaussian
smearing_sigma          0.002
lspinorb                0  #后续考虑加上 SOC
out_band                1  # output band structure
out_chg                 -1  # output real space charge
out_wfc_lcao            0  # output the wavefunction coefficients, Availability: Numerical atomic orbital basis
out_mat_hs2             True # output ham and overlap matrix
out_dm1                 1  # output density matrix
mixing_beta            0.2 # help to converge